NAME : portcgen-10-80
COMMENT : portcgen N=10, seed=80
TYPE : TSP
DIMENSION : 10
EDGE_WEIGHT_TYPE : EUC_2D
NODE_COORD_SECTION
1 69 57
2 59 44
3 60 78
4 75 76
5 93 98
6 86 75
7 55 68
8 73 88
9 68 94
10 32 80
